TCS_Benchmarks/redos_fix/regexlib2_output_distinct_1007_1006_114_0.smt2
(set-logic QF_S)
(declare-const x String)
(assert (str.in.re x (re.inter  (re.++ (re.+  (re.union  (re.++  (str.to.re "\u{68}") (re.++  (str.to.re "\u{75}") (re.++  (str.to.re "\u{6e}") (re.++  (str.to.re "\u{64}") (re.++  (str.to.re "\u{72}") (re.++  (str.to.re "\u{65}")  (str.to.re "\u{64}")))))))  (re.++  (re.union  (re.union  (str.to.re "\u{62}")  (str.to.re "\u{6d}"))  (re.++  (re.union  (str.to.re "\u{74}")  (re.++  (str.to.re "\u{71}") (re.++  (str.to.re "\u{75}") (re.++  (str.to.re "\u{61}")  (str.to.re "\u{64}")))))  (str.to.re "\u{72}"))) (re.++  (str.to.re "\u{69}") (re.++  (str.to.re "\u{6c}") (re.++  (str.to.re "\u{6c}") (re.++  (str.to.re "\u{69}") (re.++  (str.to.re "\u{6f}")  (str.to.re "\u{6e}")))))))) ) (re.+  (re.union  (re.++  (str.to.re "\u{68}") (re.++  (str.to.re "\u{75}") (re.++  (str.to.re "\u{6e}") (re.++  (str.to.re "\u{64}") (re.++  (str.to.re "\u{72}") (re.++  (str.to.re "\u{65}")  (str.to.re "\u{64}")))))))  (re.++  (str.to.re "\u{74}") (re.++  (str.to.re "\u{68}") (re.++  (str.to.re "\u{6f}") (re.++  (str.to.re "\u{75}") (re.++  (str.to.re "\u{73}") (re.++  (str.to.re "\u{61}") (re.++  (str.to.re "\u{6e}")  (str.to.re "\u{64}"))))))))) )) (re.+  (re.union  (re.++  (str.to.re "\u{68}") (re.++  (str.to.re "\u{75}") (re.++  (str.to.re "\u{6e}") (re.++  (str.to.re "\u{64}") (re.++  (str.to.re "\u{72}") (re.++  (str.to.re "\u{65}")  (str.to.re "\u{64}")))))))  (re.++  (re.union  (re.union  (str.to.re "\u{62}")  (str.to.re "\u{6d}"))  (re.++  (re.union  (str.to.re "\u{74}")  (re.++  (str.to.re "\u{71}") (re.++  (str.to.re "\u{75}") (re.++  (str.to.re "\u{61}")  (str.to.re "\u{64}")))))  (str.to.re "\u{72}"))) (re.++  (str.to.re "\u{69}") (re.++  (str.to.re "\u{6c}") (re.++  (str.to.re "\u{6c}") (re.++  (str.to.re "\u{69}") (re.++  (str.to.re "\u{6f}")  (str.to.re "\u{6e}")))))))) )  (re.++  (str.to.re "\u{74}") (re.* (re.union (re.range "\u{00}" "\u{09}") (re.range "\u{0b}" "\u{0c}") (re.range "\u{0e}" "\u{84}") (re.range "\u{86}" "\u{ff}")) )) )))
(check-sat)
(get-model)