TCS_Benchmarks/redos_fix/regexlib2_output_distinct_1007_1006_114_0.txt
(hundred|((([bm]|(t|quad)r))illion))+(hundred|thousand)+
(hundred|((([bm]|(t|quad)r))illion))+
t.*